(set-info :source |printed by MathSAT|)
(declare-fun |.x{1054}| () Int)
(declare-fun |.x{2171}| () Int)
(declare-fun |.x{1085}| () (Array Int Int))
(declare-fun |.x{2172}| () (Array Int Int))
(declare-fun |.x{1056}| () (Array Int Int))
(declare-fun |.x{2173}| () (Array Int Int))
(declare-fun |.x{1057}| () (Array Int (Array Int Int)))
(declare-fun |.x{2174}| () (Array Int (Array Int Int)))
(declare-fun |.x{1058}| () (Array Int (Array Int Int)))
(declare-fun |.x{2175}| () (Array Int (Array Int Int)))
(declare-fun |.x{1059}| () Int)
(declare-fun |.x{2176}| () Int)
(declare-fun |.x{1060}| () Int)
(declare-fun |.x{2177}| () Int)
(declare-fun |.x{1061}| () (Array Int Int))
(declare-fun |.x{2178}| () (Array Int Int))
(declare-fun |.x{1062}| () (Array Int Int))
(declare-fun |.x{2179}| () (Array Int Int))
(declare-fun |.x{1063}| () Int)
(declare-fun |.x{2180}| () Int)
(declare-fun |.x{1064}| () Int)
(declare-fun |.x{2181}| () Int)
(declare-fun |.x{1065}| () Int)
(declare-fun |.x{2182}| () Int)
(declare-fun |.x{1096}| () Int)
(declare-fun |.x{2183}| () Int)
(declare-fun |.x{1067}| () Int)
(declare-fun |.x{2184}| () Int)
(declare-fun |.x{1068}| () Int)
(declare-fun |.x{2185}| () Int)
(declare-fun |.x{1069}| () Int)
(declare-fun |.x{2186}| () Int)
(declare-fun |.x{1100}| () Int)
(declare-fun |.x{2187}| () Int)
(declare-fun |.x{1101}| () Int)
(declare-fun |.x{2188}| () Int)
(declare-fun |.x{1072}| () Int)
(declare-fun |.x{2189}| () Int)
(declare-fun |.x{1073}| () Int)
(declare-fun |.x{2190}| () Int)
(declare-fun |.x{1074}| () Int)
(declare-fun |.x{2191}| () Int)
(declare-fun |.x{1105}| () Int)
(declare-fun |.x{2192}| () Int)
(declare-fun |.x{1106}| () Int)
(declare-fun |.x{2193}| () Int)
(declare-fun |.x{1077}| () Int)
(declare-fun |.x{2194}| () Int)
(declare-fun |.x{1108}| () Int)
(declare-fun |.x{2195}| () Int)
(declare-fun |.x{1079}| () Int)
(declare-fun |.x{2196}| () Int)
(declare-fun |.x{1110}| () Int)
(declare-fun |.x{2197}| () Int)
(declare-fun |.x{1081}| () Int)
(declare-fun |.x{2198}| () Int)
(declare-fun |.x{1082}| () Int)
(declare-fun |.x{2199}| () Int)
(declare-fun |.x{1083}| () Bool)
(declare-fun |.x{2200}| () Bool)
(declare-fun |.loc{5}| () Bool)
(declare-fun |.loc{9}| () Bool)
(declare-fun |.loc{6}| () Bool)
(declare-fun |.loc{10}| () Bool)
(declare-fun |.loc{7}| () Bool)
(declare-fun |.loc{11}| () Bool)
(declare-fun |.loc{8}| () Bool)
(declare-fun |.loc{12}| () Bool)
(declare-fun |.x{549}| () (Array Int (Array Int Int)))
(declare-fun |.x{1454}| () Int)
(declare-fun |.x{1366}| () Int)
(declare-fun |.x{119}| () (Array Int Int))
(define-fun .def_68 () Bool (! |.loc{5}| :next |.loc{9}|))
(define-fun .def_381 () Bool (not .def_68))
(define-fun .def_70 () Bool (! |.loc{6}| :next |.loc{10}|))
(define-fun .def_232 () Bool (not .def_70))
(define-fun .def_722 () Bool (and .def_232 .def_381))
(define-fun .def_72 () Bool (! |.loc{7}| :next |.loc{11}|))
(define-fun .def_85 () Bool (not .def_72))
(define-fun .def_723 () Bool (and .def_85 .def_722))
(define-fun .def_74 () Bool (! |.loc{8}| :next |.loc{12}|))
(define-fun .def_100 () Bool (not .def_74))
(define-fun .def_724 () Bool (and .def_100 .def_723))
(define-fun .def_28 () Int (! |.x{1064}| :next |.x{2181}|))
(define-fun .def_26 () Int (! |.x{1063}| :next |.x{2180}|))
(define-fun .def_716 () Bool (= .def_26 .def_28))
(define-fun .def_16 () (Array Int (Array Int Int)) (! |.x{1058}| :next |.x{2175}|))
(define-fun .def_14 () (Array Int (Array Int Int)) (! |.x{1057}| :next |.x{2174}|))
(define-fun .def_715 () Bool (= .def_14 .def_16))
(define-fun .def_717 () Bool (and .def_715 .def_716))
(define-fun .def_20 () Int (! |.x{1060}| :next |.x{2177}|))
(define-fun .def_18 () Int (! |.x{1059}| :next |.x{2176}|))
(define-fun .def_714 () Bool (= .def_18 .def_20))
(define-fun .def_718 () Bool (and .def_714 .def_717))
(define-fun .def_24 () (Array Int Int) (! |.x{1062}| :next |.x{2179}|))
(define-fun .def_22 () (Array Int Int) (! |.x{1061}| :next |.x{2178}|))
(define-fun .def_713 () Bool (= .def_22 .def_24))
(define-fun .def_719 () Bool (and .def_713 .def_718))
(define-fun .def_12 () (Array Int Int) (! |.x{1056}| :next |.x{2173}|))
(define-fun .def_10 () (Array Int Int) (! |.x{1085}| :next |.x{2172}|))
(define-fun .def_712 () Bool (= .def_10 .def_12))
(define-fun .def_720 () Bool (and .def_712 .def_719))
(define-fun .def_66 () Bool (! |.x{1083}| :next |.x{2200}|))
(define-fun .def_711 () Bool (not .def_66))
(define-fun .def_721 () Bool (and .def_711 .def_720))
(define-fun .def_725 () Bool (! (and .def_721 .def_724) :init true))
(define-fun .def_708 () Bool (= .def_28 |.x{2181}|))
(define-fun .def_706 () Bool (= .def_24 |.x{2179}|))
(define-fun .def_704 () Bool (= .def_20 |.x{2177}|))
(define-fun .def_702 () Bool (= .def_16 |.x{2175}|))
(define-fun .def_8 () Int (! |.x{1054}| :next |.x{2171}|))
(define-fun .def_700 () Bool (= .def_8 |.x{2171}|))
(define-fun .def_699 () Bool (= .def_12 |.x{2173}|))
(define-fun .def_701 () Bool (and .def_699 .def_700))
(define-fun .def_703 () Bool (and .def_701 .def_702))
(define-fun .def_705 () Bool (and .def_703 .def_704))
(define-fun .def_707 () Bool (and .def_705 .def_706))
(define-fun .def_709 () Bool (and .def_707 .def_708))
(define-fun .def_653 () Bool (= |.x{2193}| 0))
(define-fun .def_42 () Int (! |.x{1101}| :next |.x{2188}|))
(define-fun .def_56 () Int (! |.x{1108}| :next |.x{2195}|))
(define-fun .def_50 () Int (! |.x{1105}| :next |.x{2192}|))
(define-fun .def_649 () (Array Int Int) (store .def_10 .def_50 0))
(define-fun .def_650 () (Array Int Int) (store .def_649 .def_56 0))
(define-fun .def_651 () (Array Int Int) (store .def_650 .def_42 0))
(define-fun .def_652 () Bool (= |.x{2172}| .def_651))
(define-fun .def_654 () Bool (and .def_652 .def_653))
(define-fun .def_655 () Bool (or .def_66 .def_654))
(define-fun .def_646 () Bool (= |.x{2189}| |.x{2193}|))
(define-fun .def_647 () Bool (or |.x{2200}| .def_646))
(define-fun .def_89 () Bool (= .def_66 |.x{2200}|))
(define-fun .def_648 () Bool (and .def_89 .def_647))
(define-fun .def_656 () Bool (and .def_648 .def_655))
(define-fun .def_657 () Bool (and .def_68 .def_656))
(define-fun .def_83 () Bool (= .def_42 |.x{2188}|))
(define-fun .def_44 () Int (! |.x{1072}| :next |.x{2189}|))
(define-fun .def_80 () Bool (= .def_44 |.x{2189}|))
(define-fun .def_224 () Bool (and .def_80 .def_83))
(define-fun .def_40 () Int (! |.x{1100}| :next |.x{2187}|))
(define-fun .def_87 () Bool (= .def_40 |.x{2187}|))
(define-fun .def_404 () Bool (and .def_87 .def_224))
(define-fun .def_32 () Int (! |.x{1096}| :next |.x{2183}|))
(define-fun .def_91 () Bool (= .def_32 |.x{2183}|))
(define-fun .def_638 () Bool (and .def_91 .def_404))
(define-fun .def_95 () Bool (= .def_10 |.x{2172}|))
(define-fun .def_639 () Bool (and .def_95 .def_638))
(define-fun .def_640 () Bool (and |.x{2200}| .def_639))
(define-fun .def_641 () Bool (and .def_381 .def_640))
(define-fun .def_60 () Int (! |.x{1110}| :next |.x{2197}|))
(define-fun .def_142 () Bool (= .def_60 |.x{2197}|))
(define-fun .def_642 () Bool (and .def_142 .def_641))
(define-fun .def_147 () Bool (= .def_56 |.x{2195}|))
(define-fun .def_643 () Bool (and .def_147 .def_642))
(define-fun .def_52 () Int (! |.x{1106}| :next |.x{2193}|))
(define-fun .def_150 () Bool (= .def_52 |.x{2193}|))
(define-fun .def_644 () Bool (and .def_150 .def_643))
(define-fun .def_154 () Bool (= .def_50 |.x{2192}|))
(define-fun .def_645 () Bool (and .def_154 .def_644))
(define-fun .def_658 () Bool (or .def_645 .def_657))
(define-fun .def_659 () Bool (and |.loc{11}| .def_658))
(define-fun .def_98 () Bool (not |.loc{10}|))
(define-fun .def_660 () Bool (and .def_98 .def_659))
(define-fun .def_661 () Bool (and .def_70 .def_660))
(define-fun .def_34 () Int (! |.x{1067}| :next |.x{2184}|))
(define-fun .def_470 () Bool (= .def_34 0))
(define-fun .def_631 () Bool (or .def_66 .def_470))
(define-fun .def_507 () Bool (and .def_89 .def_404))
(define-fun .def_508 () Bool (and .def_91 .def_507))
(define-fun .def_93 () Bool (not |.loc{11}|))
(define-fun .def_564 () Bool (and .def_93 .def_508))
(define-fun .def_565 () Bool (and .def_95 .def_564))
(define-fun .def_629 () Bool (and |.loc{10}| .def_565))
(define-fun .def_630 () Bool (and .def_232 .def_629))
(define-fun .def_632 () Bool (and .def_630 .def_631))
(define-fun .def_633 () Bool (and .def_142 .def_632))
(define-fun .def_634 () Bool (and .def_68 .def_633))
(define-fun .def_635 () Bool (and .def_147 .def_634))
(define-fun .def_636 () Bool (and .def_150 .def_635))
(define-fun .def_637 () Bool (and .def_154 .def_636))
(define-fun .def_662 () Bool (or .def_637 .def_661))
(define-fun .def_234 () Bool (not |.loc{9}|))
(define-fun .def_663 () Bool (and .def_234 .def_662))
(define-fun .def_132 () Bool (= .def_34 |.x{2184}|))
(define-fun .def_664 () Bool (and .def_132 .def_663))
(define-fun .def_58 () Int (! |.x{1079}| :next |.x{2196}|))
(define-fun .def_145 () Bool (= .def_58 |.x{2196}|))
(define-fun .def_665 () Bool (and .def_145 .def_664))
(define-fun .def_62 () Int (! |.x{1081}| :next |.x{2198}|))
(define-fun .def_152 () Bool (= .def_62 |.x{2198}|))
(define-fun .def_666 () Bool (and .def_152 .def_665))
(define-fun .def_618 () Bool (= |.x{2184}| |.x{2196}|))
(define-fun .def_36 () Int (! |.x{1068}| :next |.x{2185}|))
(define-fun .def_491 () Bool (= .def_36 15000))
(define-fun .def_619 () Bool (and .def_491 .def_618))
(define-fun .def_615 () Bool (= |.x{2198}| 0))
(define-fun .def_616 () Int (ite .def_615 1 0))
(define-fun .def_617 () Bool (= |.x{2196}| .def_616))
(define-fun .def_620 () Bool (and .def_617 .def_619))
(define-fun .def_104 () Int (* 4 .def_36))
(define-fun .def_612 () Int (+ .def_104 .def_40))
(define-fun .def_611 () (Array Int Int) (select .def_14 .def_42))
(define-fun .def_613 () Int (select .def_611 .def_612))
(define-fun .def_614 () Bool (= |.x{2198}| .def_613))
(define-fun .def_621 () Bool (and .def_614 .def_620))
(define-fun .def_622 () Bool (or .def_66 .def_621))
(define-fun .def_581 () Bool (and |.loc{9}| .def_565))
(define-fun .def_608 () Bool (and .def_232 .def_581))
(define-fun .def_609 () Bool (and .def_98 .def_608))
(define-fun .def_623 () Bool (and .def_609 .def_622))
(define-fun .def_624 () Bool (and .def_381 .def_623))
(define-fun .def_625 () Bool (and .def_142 .def_624))
(define-fun .def_626 () Bool (and .def_147 .def_625))
(define-fun .def_627 () Bool (and .def_150 .def_626))
(define-fun .def_628 () Bool (and .def_154 .def_627))
(define-fun .def_667 () Bool (or .def_628 .def_666))
(define-fun .def_607 () Bool (and .def_74 .def_85))
(define-fun .def_668 () Bool (and .def_607 .def_667))
(define-fun .def_582 () Bool (and |.loc{10}| .def_581))
(define-fun .def_595 () Bool (and .def_100 .def_582))
(define-fun .def_596 () Bool (and .def_132 .def_595))
(define-fun .def_597 () Bool (and .def_142 .def_596))
(define-fun .def_598 () Bool (and .def_68 .def_597))
(define-fun .def_599 () Bool (and .def_145 .def_598))
(define-fun .def_600 () Bool (and .def_147 .def_599))
(define-fun .def_601 () Bool (and .def_70 .def_600))
(define-fun .def_602 () Bool (and .def_150 .def_601))
(define-fun .def_603 () Bool (and .def_72 .def_602))
(define-fun .def_604 () Bool (and .def_152 .def_603))
(define-fun .def_605 () Bool (and .def_154 .def_604))
(define-fun .def_606 () Bool (and .def_66 .def_605))
(define-fun .def_669 () Bool (or .def_606 .def_668))
(define-fun .def_113 () Bool (<= 100000 .def_36))
(define-fun .def_412 () Bool (or .def_66 .def_113))
(define-fun .def_583 () Bool (and .def_412 .def_582))
(define-fun .def_584 () Bool (and .def_100 .def_583))
(define-fun .def_585 () Bool (and .def_132 .def_584))
(define-fun .def_586 () Bool (and .def_142 .def_585))
(define-fun .def_587 () Bool (and .def_68 .def_586))
(define-fun .def_588 () Bool (and .def_145 .def_587))
(define-fun .def_589 () Bool (and .def_147 .def_588))
(define-fun .def_590 () Bool (and .def_70 .def_589))
(define-fun .def_591 () Bool (and .def_150 .def_590))
(define-fun .def_592 () Bool (and .def_72 .def_591))
(define-fun .def_593 () Bool (and .def_152 .def_592))
(define-fun .def_594 () Bool (and .def_154 .def_593))
(define-fun .def_670 () Bool (or .def_594 .def_669))
(define-fun .def_114 () Bool (not .def_113))
(define-fun .def_571 () Bool (or .def_66 .def_114))
(define-fun .def_566 () Bool (and .def_234 .def_565))
(define-fun .def_567 () Bool (and .def_98 .def_566))
(define-fun .def_568 () Bool (and .def_100 .def_567))
(define-fun .def_569 () Bool (and .def_132 .def_568))
(define-fun .def_570 () Bool (and .def_142 .def_569))
(define-fun .def_572 () Bool (and .def_570 .def_571))
(define-fun .def_573 () Bool (and .def_68 .def_572))
(define-fun .def_574 () Bool (and .def_145 .def_573))
(define-fun .def_575 () Bool (and .def_147 .def_574))
(define-fun .def_576 () Bool (and .def_70 .def_575))
(define-fun .def_577 () Bool (and .def_150 .def_576))
(define-fun .def_578 () Bool (and .def_72 .def_577))
(define-fun .def_579 () Bool (and .def_152 .def_578))
(define-fun .def_580 () Bool (and .def_154 .def_579))
(define-fun .def_671 () Bool (or .def_580 .def_670))
(define-fun .def_672 () Bool (and |.loc{12}| .def_671))
(define-fun .def_134 () Bool (= .def_36 |.x{2185}|))
(define-fun .def_673 () Bool (and .def_134 .def_672))
(define-fun .def_46 () Int (! |.x{1073}| :next |.x{2190}|))
(define-fun .def_138 () Bool (= .def_46 |.x{2190}|))
(define-fun .def_674 () Bool (and .def_138 .def_673))
(define-fun .def_509 () Bool (and .def_95 .def_508))
(define-fun .def_510 () Bool (and |.loc{9}| .def_509))
(define-fun .def_511 () Bool (and |.loc{10}| .def_510))
(define-fun .def_550 () Bool (and |.loc{11}| .def_511))
(define-fun .def_551 () Bool (and .def_100 .def_550))
(define-fun .def_126 () Bool (not |.loc{12}|))
(define-fun .def_552 () Bool (and .def_126 .def_551))
(define-fun .def_389 () Int (* (- 1) |.x{2185}|))
(define-fun .def_390 () Int (+ .def_36 .def_389))
(define-fun .def_391 () Bool (= .def_390 (- 1)))
(define-fun .def_392 () Bool (or .def_66 .def_391))
(define-fun .def_553 () Bool (and .def_392 .def_552))
(define-fun .def_554 () Bool (and .def_132 .def_553))
(define-fun .def_555 () Bool (and .def_381 .def_554))
(define-fun .def_556 () Bool (and .def_142 .def_555))
(define-fun .def_557 () Bool (and .def_145 .def_556))
(define-fun .def_558 () Bool (and .def_147 .def_557))
(define-fun .def_559 () Bool (and .def_70 .def_558))
(define-fun .def_560 () Bool (and .def_150 .def_559))
(define-fun .def_561 () Bool (and .def_72 .def_560))
(define-fun .def_562 () Bool (and .def_152 .def_561))
(define-fun .def_563 () Bool (and .def_154 .def_562))
(define-fun .def_675 () Bool (or .def_563 .def_674))
(define-fun .def_534 () Bool (and |.loc{10}| .def_509))
(define-fun .def_535 () Bool (and .def_232 .def_534))
(define-fun .def_536 () Bool (and |.loc{11}| .def_535))
(define-fun .def_537 () Bool (and .def_234 .def_536))
(define-fun .def_538 () Bool (and .def_100 .def_537))
(define-fun .def_539 () Bool (and .def_126 .def_538))
(define-fun .def_540 () Bool (and .def_132 .def_539))
(define-fun .def_541 () Bool (and .def_134 .def_540))
(define-fun .def_542 () Bool (and .def_138 .def_541))
(define-fun .def_543 () Bool (and .def_142 .def_542))
(define-fun .def_544 () Bool (and .def_68 .def_543))
(define-fun .def_545 () Bool (and .def_145 .def_544))
(define-fun .def_546 () Bool (and .def_147 .def_545))
(define-fun .def_547 () Bool (and .def_150 .def_546))
(define-fun .def_548 () Bool (and .def_72 .def_547))
(define-fun .def_549 () Bool (and .def_154 .def_548))
(define-fun .def_676 () Bool (or .def_549 .def_675))
(define-fun .def_291 () Bool (= .def_14 |.x{2174}|))
(define-fun .def_677 () Bool (and .def_291 .def_676))
(define-fun .def_516 () Int (+ .def_32 60000))
(define-fun .def_106 () (Array Int Int) (select .def_14 .def_50))
(define-fun .def_517 () (Array Int Int) (store .def_106 .def_516 1))
(define-fun .def_518 () (Array Int (Array Int Int)) (store .def_14 .def_50 .def_517))
(define-fun .def_519 () Bool (= |.x{2174}| .def_518))
(define-fun .def_340 () Bool (= |.x{2185}| 0))
(define-fun .def_520 () Bool (and .def_340 .def_519))
(define-fun .def_521 () Bool (or .def_66 .def_520))
(define-fun .def_512 () Bool (and .def_232 .def_511))
(define-fun .def_513 () Bool (and |.loc{11}| .def_512))
(define-fun .def_514 () Bool (and .def_100 .def_513))
(define-fun .def_522 () Bool (and .def_514 .def_521))
(define-fun .def_523 () Bool (and .def_126 .def_522))
(define-fun .def_524 () Bool (and .def_132 .def_523))
(define-fun .def_525 () Bool (and .def_138 .def_524))
(define-fun .def_526 () Bool (and .def_381 .def_525))
(define-fun .def_527 () Bool (and .def_142 .def_526))
(define-fun .def_528 () Bool (and .def_145 .def_527))
(define-fun .def_529 () Bool (and .def_147 .def_528))
(define-fun .def_530 () Bool (and .def_150 .def_529))
(define-fun .def_531 () Bool (and .def_72 .def_530))
(define-fun .def_532 () Bool (and .def_152 .def_531))
(define-fun .def_533 () Bool (and .def_154 .def_532))
(define-fun .def_678 () Bool (or .def_533 .def_677))
(define-fun .def_492 () Bool (not .def_491))
(define-fun .def_493 () Bool (or .def_66 .def_492))
(define-fun .def_443 () Bool (and .def_74 .def_80))
(define-fun .def_444 () Bool (and .def_83 .def_443))
(define-fun .def_445 () Bool (and .def_85 .def_444))
(define-fun .def_446 () Bool (and .def_87 .def_445))
(define-fun .def_447 () Bool (and .def_89 .def_446))
(define-fun .def_448 () Bool (and .def_91 .def_447))
(define-fun .def_449 () Bool (and .def_95 .def_448))
(define-fun .def_486 () Bool (and |.loc{10}| .def_449))
(define-fun .def_487 () Bool (and .def_232 .def_486))
(define-fun .def_488 () Bool (and |.loc{11}| .def_487))
(define-fun .def_489 () Bool (and .def_234 .def_488))
(define-fun .def_494 () Bool (and .def_489 .def_493))
(define-fun .def_495 () Bool (and .def_291 .def_494))
(define-fun .def_496 () Bool (and .def_126 .def_495))
(define-fun .def_497 () Bool (and .def_132 .def_496))
(define-fun .def_498 () Bool (and .def_134 .def_497))
(define-fun .def_499 () Bool (and .def_138 .def_498))
(define-fun .def_500 () Bool (and .def_381 .def_499))
(define-fun .def_501 () Bool (and .def_142 .def_500))
(define-fun .def_502 () Bool (and .def_145 .def_501))
(define-fun .def_503 () Bool (and .def_147 .def_502))
(define-fun .def_504 () Bool (and .def_150 .def_503))
(define-fun .def_505 () Bool (and .def_152 .def_504))
(define-fun .def_506 () Bool (and .def_154 .def_505))
(define-fun .def_679 () Bool (or .def_506 .def_678))
(define-fun .def_471 () Bool (not .def_470))
(define-fun .def_472 () Bool (or .def_66 .def_471))
(define-fun .def_450 () Bool (and |.loc{9}| .def_449))
(define-fun .def_467 () Bool (and .def_232 .def_450))
(define-fun .def_468 () Bool (and |.loc{11}| .def_467))
(define-fun .def_469 () Bool (and .def_98 .def_468))
(define-fun .def_473 () Bool (and .def_469 .def_472))
(define-fun .def_474 () Bool (and .def_291 .def_473))
(define-fun .def_475 () Bool (and .def_126 .def_474))
(define-fun .def_476 () Bool (and .def_132 .def_475))
(define-fun .def_477 () Bool (and .def_134 .def_476))
(define-fun .def_478 () Bool (and .def_138 .def_477))
(define-fun .def_479 () Bool (and .def_142 .def_478))
(define-fun .def_480 () Bool (and .def_68 .def_479))
(define-fun .def_481 () Bool (and .def_145 .def_480))
(define-fun .def_482 () Bool (and .def_147 .def_481))
(define-fun .def_483 () Bool (and .def_150 .def_482))
(define-fun .def_484 () Bool (and .def_152 .def_483))
(define-fun .def_485 () Bool (and .def_154 .def_484))
(define-fun .def_680 () Bool (or .def_485 .def_679))
(define-fun .def_451 () Bool (and |.loc{11}| .def_450))
(define-fun .def_452 () Bool (and .def_98 .def_451))
(define-fun .def_453 () Bool (and .def_291 .def_452))
(define-fun .def_454 () Bool (and .def_126 .def_453))
(define-fun .def_455 () Bool (and .def_132 .def_454))
(define-fun .def_456 () Bool (and .def_134 .def_455))
(define-fun .def_457 () Bool (and .def_138 .def_456))
(define-fun .def_458 () Bool (and .def_381 .def_457))
(define-fun .def_459 () Bool (and .def_142 .def_458))
(define-fun .def_460 () Bool (and .def_145 .def_459))
(define-fun .def_461 () Bool (and .def_147 .def_460))
(define-fun .def_462 () Bool (and .def_70 .def_461))
(define-fun .def_463 () Bool (and .def_150 .def_462))
(define-fun .def_464 () Bool (and .def_152 .def_463))
(define-fun .def_465 () Bool (and .def_154 .def_464))
(define-fun .def_466 () Bool (and .def_66 .def_465))
(define-fun .def_681 () Bool (or .def_466 .def_680))
(define-fun .def_405 () Bool (and .def_85 .def_404))
(define-fun .def_406 () Bool (and .def_89 .def_405))
(define-fun .def_407 () Bool (and .def_91 .def_406))
(define-fun .def_408 () Bool (and .def_95 .def_407))
(define-fun .def_409 () Bool (and |.loc{11}| .def_408))
(define-fun .def_410 () Bool (and .def_234 .def_409))
(define-fun .def_411 () Bool (and .def_98 .def_410))
(define-fun .def_428 () Bool (and .def_100 .def_411))
(define-fun .def_429 () Bool (and .def_291 .def_428))
(define-fun .def_430 () Bool (and .def_126 .def_429))
(define-fun .def_431 () Bool (and .def_132 .def_430))
(define-fun .def_432 () Bool (and .def_134 .def_431))
(define-fun .def_433 () Bool (and .def_138 .def_432))
(define-fun .def_434 () Bool (and .def_142 .def_433))
(define-fun .def_435 () Bool (and .def_145 .def_434))
(define-fun .def_436 () Bool (and .def_147 .def_435))
(define-fun .def_437 () Bool (and .def_68 .def_436))
(define-fun .def_438 () Bool (and .def_150 .def_437))
(define-fun .def_439 () Bool (and .def_70 .def_438))
(define-fun .def_440 () Bool (and .def_152 .def_439))
(define-fun .def_441 () Bool (and .def_154 .def_440))
(define-fun .def_442 () Bool (and .def_66 .def_441))
(define-fun .def_682 () Bool (or .def_442 .def_681))
(define-fun .def_413 () Bool (and .def_411 .def_412))
(define-fun .def_414 () Bool (and .def_100 .def_413))
(define-fun .def_415 () Bool (and .def_291 .def_414))
(define-fun .def_416 () Bool (and .def_126 .def_415))
(define-fun .def_417 () Bool (and .def_132 .def_416))
(define-fun .def_418 () Bool (and .def_134 .def_417))
(define-fun .def_419 () Bool (and .def_138 .def_418))
(define-fun .def_420 () Bool (and .def_142 .def_419))
(define-fun .def_421 () Bool (and .def_145 .def_420))
(define-fun .def_422 () Bool (and .def_147 .def_421))
(define-fun .def_423 () Bool (and .def_68 .def_422))
(define-fun .def_424 () Bool (and .def_150 .def_423))
(define-fun .def_425 () Bool (and .def_70 .def_424))
(define-fun .def_426 () Bool (and .def_152 .def_425))
(define-fun .def_427 () Bool (and .def_154 .def_426))
(define-fun .def_683 () Bool (or .def_427 .def_682))
(define-fun .def_38 () Int (! |.x{1069}| :next |.x{2186}|))
(define-fun .def_136 () Bool (= .def_38 |.x{2186}|))
(define-fun .def_684 () Bool (and .def_136 .def_683))
(define-fun .def_225 () Bool (and .def_85 .def_224))
(define-fun .def_226 () Bool (and .def_87 .def_225))
(define-fun .def_227 () Bool (and .def_89 .def_226))
(define-fun .def_228 () Bool (and .def_91 .def_227))
(define-fun .def_229 () Bool (and .def_93 .def_228))
(define-fun .def_230 () Bool (and .def_95 .def_229))
(define-fun .def_384 () Bool (and |.loc{9}| .def_230))
(define-fun .def_385 () Bool (and |.loc{10}| .def_384))
(define-fun .def_386 () Bool (and .def_100 .def_385))
(define-fun .def_387 () Bool (and .def_291 .def_386))
(define-fun .def_388 () Bool (and .def_126 .def_387))
(define-fun .def_393 () Bool (and .def_388 .def_392))
(define-fun .def_394 () Bool (and .def_132 .def_393))
(define-fun .def_395 () Bool (and .def_138 .def_394))
(define-fun .def_396 () Bool (and .def_381 .def_395))
(define-fun .def_397 () Bool (and .def_142 .def_396))
(define-fun .def_398 () Bool (and .def_145 .def_397))
(define-fun .def_399 () Bool (and .def_147 .def_398))
(define-fun .def_400 () Bool (and .def_70 .def_399))
(define-fun .def_401 () Bool (and .def_150 .def_400))
(define-fun .def_402 () Bool (and .def_152 .def_401))
(define-fun .def_403 () Bool (and .def_154 .def_402))
(define-fun .def_685 () Bool (or .def_403 .def_684))
(define-fun .def_64 () Int (! |.x{1082}| :next |.x{2199}|))
(define-fun .def_81 () Bool (= .def_64 |.x{2199}|))
(define-fun .def_686 () Bool (and .def_81 .def_685))
(define-fun .def_124 () Bool (= .def_18 |.x{2176}|))
(define-fun .def_687 () Bool (and .def_124 .def_686))
(define-fun .def_128 () Bool (= .def_22 |.x{2178}|))
(define-fun .def_688 () Bool (and .def_128 .def_687))
(define-fun .def_130 () Bool (= .def_26 |.x{2180}|))
(define-fun .def_689 () Bool (and .def_130 .def_688))
(define-fun .def_30 () Int (! |.x{1065}| :next |.x{2182}|))
(define-fun .def_241 () Bool (= .def_30 |.x{2182}|))
(define-fun .def_690 () Bool (and .def_241 .def_689))
(define-fun .def_48 () Int (! |.x{1074}| :next |.x{2191}|))
(define-fun .def_248 () Bool (= .def_48 |.x{2191}|))
(define-fun .def_691 () Bool (and .def_248 .def_690))
(define-fun .def_54 () Int (! |.x{1077}| :next |.x{2194}|))
(define-fun .def_140 () Bool (= .def_54 |.x{2194}|))
(define-fun .def_692 () Bool (and .def_140 .def_691))
(define-fun .def_372 () Bool (= |.x{2180}| 0))
(define-fun .def_371 () Bool (= |.x{2176}| 0))
(define-fun .def_373 () Bool (and .def_371 .def_372))
(define-fun .def_369 () (Array Int Int) (store .def_10 0 0))
(define-fun .def_370 () Bool (= |.x{119}| .def_369))
(define-fun .def_374 () Bool (and .def_370 .def_373))
(define-fun .def_375 () Bool (or .def_66 .def_374))
(define-fun .def_359 () (Array Int Int) (store .def_22 |.x{2192}| 400000))
(define-fun .def_360 () (Array Int Int) (store .def_359 |.x{2195}| 400000))
(define-fun .def_361 () (Array Int Int) (store .def_360 |.x{2188}| 400000))
(define-fun .def_362 () Bool (= |.x{2178}| .def_361))
(define-fun .def_355 () Bool (<= |.x{2171}| |.x{2192}|))
(define-fun .def_356 () Bool (not .def_355))
(define-fun .def_344 () Bool (<= |.x{2171}| |.x{2195}|))
(define-fun .def_345 () Bool (not .def_344))
(define-fun .def_338 () Bool (<= |.x{2171}| |.x{2188}|))
(define-fun .def_339 () Bool (not .def_338))
(define-fun .def_341 () Bool (and .def_339 .def_340))
(define-fun .def_337 () Bool (= |.x{2183}| 0))
(define-fun .def_342 () Bool (and .def_337 .def_341))
(define-fun .def_335 () Int (select |.x{119}| |.x{2192}|))
(define-fun .def_336 () Bool (= .def_335 0))
(define-fun .def_343 () Bool (and .def_336 .def_342))
(define-fun .def_346 () Bool (and .def_343 .def_345))
(define-fun .def_333 () Bool (= |.x{2188}| 0))
(define-fun .def_334 () Bool (not .def_333))
(define-fun .def_347 () Bool (and .def_334 .def_346))
(define-fun .def_332 () Bool (= |.x{2187}| 0))
(define-fun .def_348 () Bool (and .def_332 .def_347))
(define-fun .def_320 () (Array Int Int) (store |.x{119}| |.x{2192}| 1))
(define-fun .def_330 () Int (select .def_320 |.x{2195}|))
(define-fun .def_331 () Bool (= .def_330 0))
(define-fun .def_349 () Bool (and .def_331 .def_348))
(define-fun .def_328 () Bool (= |.x{2195}| 0))
(define-fun .def_329 () Bool (not .def_328))
(define-fun .def_350 () Bool (and .def_329 .def_349))
(define-fun .def_321 () (Array Int Int) (store .def_320 |.x{2195}| 1))
(define-fun .def_326 () Int (select .def_321 |.x{2188}|))
(define-fun .def_327 () Bool (= .def_326 0))
(define-fun .def_351 () Bool (and .def_327 .def_350))
(define-fun .def_324 () Bool (= |.x{2192}| 0))
(define-fun .def_325 () Bool (not .def_324))
(define-fun .def_352 () Bool (and .def_325 .def_351))
(define-fun .def_322 () (Array Int Int) (store .def_321 |.x{2188}| 1))
(define-fun .def_323 () Bool (= |.x{2172}| .def_322))
(define-fun .def_353 () Bool (and .def_323 .def_352))
(define-fun .def_318 () Bool (= |.x{2197}| 0))
(define-fun .def_354 () Bool (and .def_318 .def_353))
(define-fun .def_357 () Bool (and .def_354 .def_356))
(define-fun .def_363 () Bool (and .def_357 .def_362))
(define-fun .def_364 () Bool (or |.x{2200}| .def_363))
(define-fun .def_315 () Bool (and .def_80 .def_85))
(define-fun .def_316 () Bool (and .def_89 .def_315))
(define-fun .def_317 () Bool (and .def_93 .def_316))
(define-fun .def_365 () Bool (and .def_317 .def_364))
(define-fun .def_366 () Bool (and |.loc{9}| .def_365))
(define-fun .def_367 () Bool (and |.loc{10}| .def_366))
(define-fun .def_368 () Bool (and .def_232 .def_367))
(define-fun .def_376 () Bool (and .def_368 .def_375))
(define-fun .def_377 () Bool (and .def_100 .def_376))
(define-fun .def_378 () Bool (and .def_291 .def_377))
(define-fun .def_379 () Bool (and .def_126 .def_378))
(define-fun .def_380 () Bool (and .def_132 .def_379))
(define-fun .def_382 () Bool (and .def_380 .def_381))
(define-fun .def_383 () Bool (and .def_145 .def_382))
(define-fun .def_693 () Bool (or .def_383 .def_692))
(define-fun .def_105 () Int (+ .def_32 .def_104))
(define-fun .def_266 () Int (select .def_106 .def_105))
(define-fun .def_302 () Bool (= |.x{1454}| .def_266))
(define-fun .def_303 () Bool (or .def_66 .def_302))
(define-fun .def_214 () Bool (= |.x{1454}| 0))
(define-fun .def_297 () Bool (or |.x{2200}| .def_214))
(define-fun .def_82 () Bool (and .def_80 .def_81))
(define-fun .def_84 () Bool (and .def_82 .def_83))
(define-fun .def_86 () Bool (and .def_84 .def_85))
(define-fun .def_88 () Bool (and .def_86 .def_87))
(define-fun .def_90 () Bool (and .def_88 .def_89))
(define-fun .def_92 () Bool (and .def_90 .def_91))
(define-fun .def_94 () Bool (and .def_92 .def_93))
(define-fun .def_96 () Bool (and .def_94 .def_95))
(define-fun .def_287 () Bool (and |.loc{10}| .def_96))
(define-fun .def_288 () Bool (and .def_232 .def_287))
(define-fun .def_289 () Bool (and .def_234 .def_288))
(define-fun .def_290 () Bool (and .def_100 .def_289))
(define-fun .def_292 () Bool (and .def_290 .def_291))
(define-fun .def_293 () Bool (and .def_124 .def_292))
(define-fun .def_294 () Bool (and .def_126 .def_293))
(define-fun .def_295 () Bool (and .def_128 .def_294))
(define-fun .def_296 () Bool (and .def_130 .def_295))
(define-fun .def_298 () Bool (and .def_296 .def_297))
(define-fun .def_299 () Bool (and .def_241 .def_298))
(define-fun .def_300 () Bool (and .def_132 .def_299))
(define-fun .def_301 () Bool (and .def_134 .def_300))
(define-fun .def_304 () Bool (and .def_301 .def_303))
(define-fun .def_305 () Bool (and .def_136 .def_304))
(define-fun .def_306 () Bool (and .def_138 .def_305))
(define-fun .def_307 () Bool (and .def_248 .def_306))
(define-fun .def_308 () Bool (and .def_142 .def_307))
(define-fun .def_309 () Bool (and .def_68 .def_308))
(define-fun .def_310 () Bool (and .def_145 .def_309))
(define-fun .def_311 () Bool (and .def_147 .def_310))
(define-fun .def_312 () Bool (and .def_150 .def_311))
(define-fun .def_313 () Bool (and .def_152 .def_312))
(define-fun .def_314 () Bool (and .def_154 .def_313))
(define-fun .def_694 () Bool (or .def_314 .def_693))
(define-fun .def_174 () Int (* 4 |.x{2185}|))
(define-fun .def_218 () Int (+ .def_174 |.x{2187}|))
(define-fun .def_217 () (Array Int Int) (select .def_14 |.x{2188}|))
(define-fun .def_270 () (Array Int Int) (store .def_217 .def_218 0))
(define-fun .def_271 () (Array Int (Array Int Int)) (store .def_14 |.x{2188}| .def_270))
(define-fun .def_272 () Bool (= |.x{2174}| .def_271))
(define-fun .def_273 () Bool (and .def_214 .def_272))
(define-fun .def_274 () Bool (or |.x{2200}| .def_273))
(define-fun .def_231 () Bool (and |.loc{10}| .def_230))
(define-fun .def_233 () Bool (and .def_231 .def_232))
(define-fun .def_235 () Bool (and .def_233 .def_234))
(define-fun .def_236 () Bool (and .def_100 .def_235))
(define-fun .def_237 () Bool (and .def_124 .def_236))
(define-fun .def_238 () Bool (and .def_126 .def_237))
(define-fun .def_239 () Bool (and .def_128 .def_238))
(define-fun .def_240 () Bool (and .def_130 .def_239))
(define-fun .def_242 () Bool (and .def_240 .def_241))
(define-fun .def_243 () Bool (and .def_132 .def_242))
(define-fun .def_244 () Bool (and .def_134 .def_243))
(define-fun .def_245 () Bool (and .def_136 .def_244))
(define-fun .def_275 () Bool (and .def_245 .def_274))
(define-fun .def_276 () Bool (and .def_138 .def_275))
(define-fun .def_277 () Bool (and .def_248 .def_276))
(define-fun .def_278 () Bool (and .def_142 .def_277))
(define-fun .def_279 () Bool (and .def_68 .def_278))
(define-fun .def_256 () Bool (= |.x{1366}| 0))
(define-fun .def_257 () Bool (not .def_256))
(define-fun .def_183 () Int (+ .def_174 |.x{2197}|))
(define-fun .def_252 () (Array Int Int) (select .def_14 |.x{2195}|))
(define-fun .def_253 () Int (select .def_252 .def_183))
(define-fun .def_254 () Bool (= |.x{1454}| .def_253))
(define-fun .def_258 () Bool (and .def_254 .def_257))
(define-fun .def_259 () Bool (or |.x{2200}| .def_258))
(define-fun .def_280 () Bool (and .def_259 .def_279))
(define-fun .def_281 () Bool (and .def_145 .def_280))
(define-fun .def_282 () Bool (and .def_147 .def_281))
(define-fun .def_283 () Bool (and .def_150 .def_282))
(define-fun .def_284 () Bool (and .def_152 .def_283))
(define-fun .def_285 () Bool (and .def_154 .def_284))
(define-fun .def_267 () Bool (= |.x{1366}| .def_266))
(define-fun .def_268 () Bool (or .def_66 .def_267))
(define-fun .def_286 () Bool (and .def_268 .def_285))
(define-fun .def_695 () Bool (or .def_286 .def_694))
(define-fun .def_219 () (Array Int Int) (store .def_217 .def_218 1))
(define-fun .def_220 () (Array Int (Array Int Int)) (store .def_14 |.x{2188}| .def_219))
(define-fun .def_221 () Bool (= |.x{2174}| .def_220))
(define-fun .def_215 () Bool (not .def_214))
(define-fun .def_222 () Bool (and .def_215 .def_221))
(define-fun .def_223 () Bool (or |.x{2200}| .def_222))
(define-fun .def_246 () Bool (and .def_223 .def_245))
(define-fun .def_247 () Bool (and .def_138 .def_246))
(define-fun .def_249 () Bool (and .def_247 .def_248))
(define-fun .def_250 () Bool (and .def_142 .def_249))
(define-fun .def_251 () Bool (and .def_68 .def_250))
(define-fun .def_260 () Bool (and .def_251 .def_259))
(define-fun .def_261 () Bool (and .def_145 .def_260))
(define-fun .def_262 () Bool (and .def_147 .def_261))
(define-fun .def_263 () Bool (and .def_150 .def_262))
(define-fun .def_264 () Bool (and .def_152 .def_263))
(define-fun .def_265 () Bool (and .def_154 .def_264))
(define-fun .def_269 () Bool (and .def_265 .def_268))
(define-fun .def_696 () Bool (or .def_269 .def_695))
(define-fun .def_107 () (Array Int Int) (store .def_106 .def_105 0))
(define-fun .def_108 () (Array Int (Array Int Int)) (store .def_14 .def_50 .def_107))
(define-fun .def_190 () Bool (= .def_108 |.x{549}|))
(define-fun .def_111 () Bool (<= .def_30 2147483647))
(define-fun .def_115 () Bool (and .def_111 .def_114))
(define-fun .def_191 () Bool (and .def_115 .def_190))
(define-fun .def_118 () Bool (<= (- 2147483648) .def_30))
(define-fun .def_192 () Bool (and .def_118 .def_191))
(define-fun .def_120 () Bool (= .def_30 |.x{2191}|))
(define-fun .def_193 () Bool (and .def_120 .def_192))
(define-fun .def_194 () Bool (or .def_66 .def_193))
(define-fun .def_157 () Real (* (/ 1 2) (to_real |.x{2185}|)))
(define-fun .def_158 () Int (to_int .def_157))
(define-fun .def_160 () Int (* 2 .def_158))
(define-fun .def_162 () Int (* (- 1) .def_160))
(define-fun .def_163 () Int (+ |.x{2185}| .def_162))
(define-fun .def_165 () Int (+ .def_163 (- 2)))
(define-fun .def_170 () Bool (<= 0 |.x{2185}|))
(define-fun .def_171 () Bool (not .def_170))
(define-fun .def_166 () Int (* (- 2) .def_158))
(define-fun .def_167 () Int (+ |.x{2185}| .def_166))
(define-fun .def_168 () Bool (= .def_167 0))
(define-fun .def_169 () Bool (not .def_168))
(define-fun .def_172 () Bool (and .def_169 .def_171))
(define-fun .def_173 () Int (ite .def_172 .def_165 .def_163))
(define-fun .def_177 () Int (+ |.x{2183}| .def_174))
(define-fun .def_179 () (Array Int Int) (select |.x{549}| |.x{2192}|))
(define-fun .def_180 () (Array Int Int) (store .def_179 .def_177 1))
(define-fun .def_181 () (Array Int (Array Int Int)) (store |.x{549}| |.x{2192}| .def_180))
(define-fun .def_182 () (Array Int Int) (select .def_181 |.x{2195}|))
(define-fun .def_184 () (Array Int Int) (store .def_182 .def_183 .def_173))
(define-fun .def_185 () (Array Int (Array Int Int)) (store .def_181 |.x{2195}| .def_184))
(define-fun .def_186 () Bool (= |.x{2174}| .def_185))
(define-fun .def_77 () Bool (= |.x{2191}| 0))
(define-fun .def_187 () Bool (and .def_77 .def_186))
(define-fun .def_188 () Bool (or |.x{2200}| .def_187))
(define-fun .def_97 () Bool (and |.loc{9}| .def_96))
(define-fun .def_99 () Bool (and .def_97 .def_98))
(define-fun .def_101 () Bool (and .def_99 .def_100))
(define-fun .def_189 () Bool (and .def_101 .def_188))
(define-fun .def_195 () Bool (and .def_189 .def_194))
(define-fun .def_196 () Bool (and .def_124 .def_195))
(define-fun .def_197 () Bool (and .def_126 .def_196))
(define-fun .def_198 () Bool (and .def_128 .def_197))
(define-fun .def_199 () Bool (and .def_130 .def_198))
(define-fun .def_200 () Bool (and .def_132 .def_199))
(define-fun .def_201 () Bool (and .def_134 .def_200))
(define-fun .def_202 () Bool (and .def_136 .def_201))
(define-fun .def_203 () Bool (and .def_138 .def_202))
(define-fun .def_204 () Bool (and .def_140 .def_203))
(define-fun .def_205 () Bool (and .def_142 .def_204))
(define-fun .def_206 () Bool (and .def_68 .def_205))
(define-fun .def_207 () Bool (and .def_145 .def_206))
(define-fun .def_208 () Bool (and .def_147 .def_207))
(define-fun .def_209 () Bool (and .def_70 .def_208))
(define-fun .def_210 () Bool (and .def_150 .def_209))
(define-fun .def_211 () Bool (and .def_152 .def_210))
(define-fun .def_212 () Bool (and .def_154 .def_211))
(define-fun .def_697 () Bool (or .def_212 .def_696))
(define-fun .def_109 () Bool (= |.x{2174}| .def_108))
(define-fun .def_116 () Bool (and .def_109 .def_115))
(define-fun .def_119 () Bool (and .def_116 .def_118))
(define-fun .def_121 () Bool (and .def_119 .def_120))
(define-fun .def_122 () Bool (or .def_66 .def_121))
(define-fun .def_78 () Bool (not .def_77))
(define-fun .def_79 () Bool (or |.x{2200}| .def_78))
(define-fun .def_102 () Bool (and .def_79 .def_101))
(define-fun .def_123 () Bool (and .def_102 .def_122))
(define-fun .def_125 () Bool (and .def_123 .def_124))
(define-fun .def_127 () Bool (and .def_125 .def_126))
(define-fun .def_129 () Bool (and .def_127 .def_128))
(define-fun .def_131 () Bool (and .def_129 .def_130))
(define-fun .def_133 () Bool (and .def_131 .def_132))
(define-fun .def_135 () Bool (and .def_133 .def_134))
(define-fun .def_137 () Bool (and .def_135 .def_136))
(define-fun .def_139 () Bool (and .def_137 .def_138))
(define-fun .def_141 () Bool (and .def_139 .def_140))
(define-fun .def_143 () Bool (and .def_141 .def_142))
(define-fun .def_144 () Bool (and .def_68 .def_143))
(define-fun .def_146 () Bool (and .def_144 .def_145))
(define-fun .def_148 () Bool (and .def_146 .def_147))
(define-fun .def_149 () Bool (and .def_70 .def_148))
(define-fun .def_151 () Bool (and .def_149 .def_150))
(define-fun .def_153 () Bool (and .def_151 .def_152))
(define-fun .def_155 () Bool (and .def_153 .def_154))
(define-fun .def_698 () Bool (or .def_155 .def_697))
(define-fun .def_710 () Bool (! (and .def_698 .def_709) :trans true))
(define-fun .def_726 () Bool (and .def_72 .def_722))
(define-fun .def_727 () Bool (and .def_74 .def_726))
(define-fun .def_728 () Bool (and .def_66 .def_727))
(define-fun .def_729 () Bool (! (not .def_728) :invar-property 0))
(assert true)
